************************************************************************
file with basedata            : mm16_.bas
initial value random generator: 421331328
************************************************************************
projects                      :  1
jobs (incl. supersource/sink ):  12
horizon                       :  86
RESOURCES
  - renewable                 :  2   R
  - nonrenewable              :  2   N
  - doubly constrained        :  0   D
************************************************************************
PROJECT INFORMATION:
pronr.  #jobs rel.date duedate tardcost  MPM-Time
    1     10      0       21        8       21
************************************************************************
PRECEDENCE RELATIONS:
jobnr.    #modes  #successors   successors
   0        1          3           1   2   3
   1        3          2           5   9
   2        3          2           4   5
   3        3          2           9  10
   4        3          2           6   9
   5        3          1           6
   6        3          2           7  10
   7        3          1           8
   8        3          1          11
   9        3          1          11
  10        3          1          11
  11        1          0        
************************************************************************
REQUESTS/DURATIONS:
jobnr. mode duration  R 1  R 2  R 3  R 4  E(W 1)  E(W 2)  E(W 3)
------------------------------------------------------------------------
  0      1     0       0    0    0    0     0       0       0
  1      1     2       0    8    6    7    16      12      14
  2      1     3       7    0    8    8    21      24      24
  3      1     1       7    0    8    8     7       8       8
  4      1     1       0    5    6    9     5       6       9
  5      1     7       0    5    8    7    35      56      49
  6      1     4       5    0    8    5    20      32      20
  7      1     3       7    0   10    4    21      30      12
  8      1     4       8    0   10    7    32      40      28
  9      1     4       0    1    7    9     8      28      36
 10      1     4       0    3    8    6    12      32      24
 11      1     0       0    0    0    0     0       0       0
************************************************************************
RESOURCEAVAILABILITIES:
  R 1  R 2  R 3
   21   79   71
************************************************************************
RESOURCE LIMITS:
jobnr.  l(R 1)  u(R 1)  l(R 2)  u(R 2)  l(R 3)  u(R 3)
------------------------------------------------------------------------
  0        0       0       0       0       0       0
  1        4       8       3       6       4       7
  2        4       7       4       8       4       8
  3        4       7       4       8       4       8
  4        3       5       3       6       5       9
  5        3       5       4       8       4       7
  6        3       5       4       8       3       5
  7        4       7       5      10       2       4
  8        4       8       5      10       4       7
  9        1       2       4       7       5       9
 10        2       3       4       8       3       6
 11        0       0       0       0       0       0
************************************************************************
SCENARIOS:
------------------------------------------------------------------------
RESOURCE k = 1
s = 1: (0, 20, 15, 9, 4, 38, 19, 27, 22, 8, 16, 0)
s = 2: (0, 21, 25, 7, 8, 35, 29, 31, 29, 5, 11, 0)
s = 3: (0, 24, 18, 6, 5, 20, 33, 15, 46, 11, 22, 0)
s = 4: (0, 11, 16, 9, 4, 42, 15, 18, 27, 8, 13, 0)
s = 5: (0, 19, 16, 6, 4, 54, 12, 27, 25, 13, 12, 0)
s = 6: (0, 22, 12, 5, 5, 27, 12, 20, 38, 9, 15, 0)
s = 7: (0, 13, 19, 7, 4, 31, 16, 21, 50, 7, 10, 0)
s = 8: (0, 12, 16, 9, 4, 27, 19, 19, 43, 14, 8, 0)
s = 9: (0, 18, 16, 8, 4, 38, 21, 17, 50, 9, 13, 0)
s = 10: (0, 11, 24, 5, 5, 27, 34, 34, 23, 9, 14, 0)
s = 11: (0, 21, 19, 9, 9, 24, 15, 18, 33, 6, 11, 0)
s = 12: (0, 13, 23, 13, 5, 26, 15, 27, 40, 12, 9, 0)
s = 13: (0, 15, 25, 8, 6, 29, 28, 18, 25, 13, 16, 0)
s = 14: (0, 22, 26, 6, 5, 21, 23, 17, 30, 5, 14, 0)
s = 15: (0, 23, 24, 7, 5, 42, 22, 15, 25, 12, 14, 0)
s = 16: (0, 11, 23, 5, 5, 37, 23, 20, 42, 12, 11, 0)
s = 17: (0, 14, 26, 10, 5, 32, 27, 25, 31, 10, 11, 0)
s = 18: (0, 18, 20, 8, 5, 28, 19, 25, 34, 11, 15, 0)
s = 19: (0, 22, 16, 11, 6, 40, 25, 20, 35, 8, 11, 0)
s = 20: (0, 17, 25, 12, 4, 60, 25, 16, 38, 13, 9, 0)
s = 21: (0, 10, 18, 11, 6, 23, 14, 20, 43, 8, 10, 0)
s = 22: (0, 22, 15, 10, 9, 28, 14, 19, 42, 12, 16, 0)
s = 23: (0, 16, 21, 7, 7, 25, 27, 19, 37, 5, 9, 0)
s = 24: (0, 12, 24, 7, 3, 31, 24, 19, 19, 11, 10, 0)
s = 25: (0, 14, 31, 5, 4, 28, 17, 15, 40, 6, 10, 0)
s = 26: (0, 11, 21, 10, 8, 28, 11, 13, 29, 5, 15, 0)
s = 27: (0, 20, 18, 6, 5, 36, 30, 19, 43, 9, 10, 0)
s = 28: (0, 20, 21, 7, 6, 57, 26, 26, 30, 7, 17, 0)
s = 29: (0, 13, 17, 5, 4, 50, 13, 19, 28, 13, 10, 0)
s = 30: (0, 10, 16, 10, 5, 24, 38, 30, 37, 8, 8, 0)
s = 31: (0, 16, 27, 6, 7, 24, 24, 23, 33, 7, 11, 0)
s = 32: (0, 14, 23, 8, 6, 20, 16, 32, 25, 13, 19, 0)
s = 33: (0, 15, 18, 7, 6, 38, 15, 37, 37, 7, 16, 0)
s = 34: (0, 26, 21, 11, 5, 30, 13, 23, 47, 7, 10, 0)
s = 35: (0, 18, 27, 5, 8, 45, 23, 14, 29, 6, 22, 0)
s = 36: (0, 24, 16, 10, 4, 42, 14, 28, 32, 8, 14, 0)
s = 37: (0, 10, 24, 8, 5, 49, 16, 36, 22, 12, 14, 0)
s = 38: (0, 12, 18, 10, 7, 32, 34, 14, 41, 6, 15, 0)
s = 39: (0, 15, 39, 8, 4, 27, 22, 26, 31, 7, 14, 0)
s = 40: (0, 16, 16, 5, 8, 41, 18, 16, 20, 6, 14, 0)
s = 41: (0, 15, 16, 6, 4, 20, 23, 25, 25, 12, 13, 0)
s = 42: (0, 11, 14, 5, 5, 37, 24, 29, 29, 13, 10, 0)
s = 43: (0, 14, 36, 8, 6, 53, 29, 12, 49, 7, 7, 0)
s = 44: (0, 16, 17, 7, 5, 42, 21, 19, 17, 13, 8, 0)
s = 45: (0, 11, 15, 6, 5, 51, 20, 34, 29, 7, 9, 0)
s = 46: (0, 16, 13, 7, 3, 33, 34, 25, 37, 10, 9, 0)
s = 47: (0, 17, 16, 8, 5, 32, 18, 25, 28, 6, 14, 0)
s = 48: (0, 16, 26, 11, 7, 40, 23, 27, 55, 5, 14, 0)
s = 49: (0, 17, 29, 7, 8, 35, 18, 13, 21, 8, 10, 0)
s = 50: (0, 22, 24, 5, 4, 36, 19, 19, 26, 7, 10, 0)
s = 51: (0, 11, 17, 8, 6, 31, 14, 18, 21, 11, 23, 0)
s = 52: (0, 19, 22, 7, 4, 42, 30, 16, 41, 6, 12, 0)
s = 53: (0, 11, 20, 9, 7, 23, 31, 25, 27, 13, 11, 0)
s = 54: (0, 11, 20, 8, 6, 55, 18, 21, 57, 7, 13, 0)
s = 55: (0, 15, 37, 9, 4, 35, 14, 18, 37, 11, 11, 0)
s = 56: (0, 19, 20, 11, 4, 46, 18, 26, 22, 7, 12, 0)
s = 57: (0, 13, 24, 6, 6, 48, 23, 33, 25, 11, 10, 0)
s = 58: (0, 15, 19, 10, 7, 48, 32, 14, 26, 10, 14, 0)
s = 59: (0, 12, 15, 6, 6, 38, 30, 34, 23, 11, 14, 0)
s = 60: (0, 14, 32, 4, 6, 37, 17, 22, 34, 7, 16, 0)
s = 61: (0, 13, 16, 6, 5, 35, 18, 17, 47, 5, 14, 0)
s = 62: (0, 22, 27, 5, 8, 28, 16, 22, 47, 9, 19, 0)
s = 63: (0, 15, 31, 6, 6, 30, 24, 28, 42, 7, 12, 0)
s = 64: (0, 19, 17, 9, 7, 44, 23, 25, 48, 11, 13, 0)
s = 65: (0, 12, 18, 7, 4, 27, 12, 22, 30, 9, 11, 0)
s = 66: (0, 13, 28, 7, 8, 33, 14, 22, 33, 10, 12, 0)
s = 67: (0, 23, 16, 10, 7, 19, 30, 20, 29, 9, 13, 0)
s = 68: (0, 27, 14, 4, 4, 24, 17, 17, 20, 9, 10, 0)
s = 69: (0, 17, 20, 7, 5, 38, 26, 18, 36, 7, 8, 0)
s = 70: (0, 13, 18, 8, 4, 32, 14, 23, 41, 10, 12, 0)
s = 71: (0, 11, 20, 10, 5, 24, 15, 23, 36, 6, 11, 0)
s = 72: (0, 14, 28, 11, 7, 24, 20, 13, 37, 12, 11, 0)
s = 73: (0, 19, 21, 6, 5, 42, 12, 15, 27, 8, 10, 0)
s = 74: (0, 17, 23, 5, 6, 39, 29, 30, 29, 8, 11, 0)
s = 75: (0, 18, 17, 7, 8, 26, 12, 23, 42, 7, 12, 0)
s = 76: (0, 19, 15, 8, 6, 38, 26, 31, 44, 11, 9, 0)
s = 77: (0, 16, 25, 8, 4, 30, 17, 19, 21, 7, 12, 0)
s = 78: (0, 20, 19, 8, 5, 19, 24, 15, 29, 7, 8, 0)
s = 79: (0, 14, 23, 10, 4, 33, 20, 28, 35, 6, 14, 0)
s = 80: (0, 14, 33, 5, 5, 30, 33, 30, 22, 12, 17, 0)
s = 81: (0, 16, 28, 5, 7, 25, 23, 14, 24, 8, 8, 0)
s = 82: (0, 13, 21, 6, 7, 43, 27, 19, 41, 8, 12, 0)
s = 83: (0, 17, 24, 9, 5, 33, 26, 13, 40, 10, 7, 0)
s = 84: (0, 11, 19, 6, 7, 44, 24, 21, 28, 8, 12, 0)
s = 85: (0, 15, 15, 8, 6, 35, 13, 27, 33, 13, 12, 0)
s = 86: (0, 14, 33, 5, 5, 43, 25, 28, 31, 8, 12, 0)
s = 87: (0, 17, 25, 12, 6, 29, 18, 15, 42, 7, 9, 0)
s = 88: (0, 17, 15, 11, 6, 29, 18, 20, 21, 12, 11, 0)
s = 89: (0, 12, 17, 7, 4, 46, 19, 30, 27, 14, 10, 0)
s = 90: (0, 10, 24, 10, 6, 43, 12, 30, 21, 10, 16, 0)
s = 91: (0, 14, 19, 6, 9, 40, 19, 26, 38, 5, 11, 0)
s = 92: (0, 12, 30, 6, 4, 37, 15, 16, 31, 9, 10, 0)
s = 93: (0, 14, 22, 6, 7, 34, 17, 22, 54, 8, 16, 0)
s = 94: (0, 11, 13, 8, 6, 34, 22, 26, 48, 10, 14, 0)
s = 95: (0, 22, 15, 9, 6, 37, 22, 16, 23, 9, 9, 0)
s = 96: (0, 13, 23, 4, 8, 55, 12, 27, 29, 8, 13, 0)
s = 97: (0, 10, 32, 9, 8, 28, 19, 18, 48, 9, 17, 0)
s = 98: (0, 13, 29, 6, 3, 48, 16, 19, 53, 9, 7, 0)
s = 99: (0, 14, 26, 13, 6, 34, 26, 11, 30, 6, 15, 0)
s = 100: (0, 15, 24, 9, 7, 29, 26, 26, 18, 7, 10, 0)
s = 101: (0, 18, 14, 7, 5, 27, 25, 18, 29, 6, 15, 0)
s = 102: (0, 12, 13, 7, 5, 29, 17, 24, 27, 11, 13, 0)
s = 103: (0, 16, 38, 7, 5, 54, 14, 23, 41, 8, 16, 0)
s = 104: (0, 13, 15, 6, 7, 24, 26, 24, 37, 9, 10, 0)
s = 105: (0, 9, 15, 11, 5, 45, 13, 29, 23, 6, 15, 0)
s = 106: (0, 24, 26, 5, 4, 20, 15, 21, 32, 7, 9, 0)
s = 107: (0, 26, 22, 4, 5, 35, 28, 19, 47, 8, 15, 0)
s = 108: (0, 19, 20, 7, 7, 30, 18, 16, 49, 10, 13, 0)
s = 109: (0, 13, 29, 11, 7, 22, 20, 14, 23, 7, 11, 0)
s = 110: (0, 17, 21, 5, 5, 31, 22, 29, 36, 15, 11, 0)
s = 111: (0, 12, 18, 5, 4, 41, 23, 18, 46, 8, 10, 0)
s = 112: (0, 15, 16, 7, 5, 28, 23, 29, 29, 5, 15, 0)
s = 113: (0, 14, 22, 10, 7, 24, 29, 22, 28, 12, 14, 0)
s = 114: (0, 12, 24, 4, 5, 42, 18, 16, 40, 14, 19, 0)
s = 115: (0, 15, 16, 5, 5, 58, 12, 18, 30, 10, 8, 0)
s = 116: (0, 11, 17, 6, 5, 41, 22, 19, 25, 7, 10, 0)
s = 117: (0, 17, 28, 6, 5, 37, 16, 23, 38, 9, 8, 0)
s = 118: (0, 11, 20, 9, 6, 36, 17, 31, 54, 8, 14, 0)
s = 119: (0, 14, 18, 8, 4, 25, 13, 17, 23, 7, 10, 0)
s = 120: (0, 18, 13, 5, 4, 49, 28, 25, 30, 9, 11, 0)
s = 121: (0, 16, 26, 6, 6, 38, 15, 21, 34, 7, 10, 0)
s = 122: (0, 20, 18, 5, 5, 48, 12, 17, 49, 6, 12, 0)
s = 123: (0, 25, 24, 7, 7, 31, 36, 31, 24, 6, 13, 0)
s = 124: (0, 11, 21, 6, 6, 38, 13, 18, 38, 9, 15, 0)
s = 125: (0, 16, 16, 6, 4, 31, 34, 33, 34, 9, 12, 0)
s = 126: (0, 13, 30, 5, 6, 24, 25, 16, 35, 6, 9, 0)
s = 127: (0, 15, 20, 8, 5, 42, 14, 16, 26, 9, 11, 0)
s = 128: (0, 15, 33, 6, 5, 28, 15, 29, 34, 6, 11, 0)
s = 129: (0, 13, 19, 6, 6, 28, 15, 32, 32, 6, 10, 0)
s = 130: (0, 11, 12, 8, 6, 44, 15, 15, 46, 7, 10, 0)
s = 131: (0, 21, 25, 10, 7, 53, 23, 16, 33, 13, 14, 0)
s = 132: (0, 17, 16, 5, 5, 47, 16, 30, 42, 8, 12, 0)
s = 133: (0, 26, 20, 8, 5, 25, 15, 15, 38, 9, 11, 0)
s = 134: (0, 11, 21, 13, 5, 44, 25, 27, 41, 9, 14, 0)
s = 135: (0, 10, 38, 12, 8, 34, 17, 24, 43, 6, 11, 0)
s = 136: (0, 19, 28, 9, 6, 35, 25, 19, 51, 7, 13, 0)
s = 137: (0, 19, 28, 7, 4, 29, 19, 32, 35, 6, 19, 0)
s = 138: (0, 21, 14, 11, 5, 46, 12, 26, 20, 6, 9, 0)
s = 139: (0, 21, 16, 6, 8, 39, 27, 18, 47, 7, 8, 0)
s = 140: (0, 13, 25, 9, 6, 52, 32, 17, 33, 8, 15, 0)
s = 141: (0, 16, 17, 4, 6, 40, 18, 22, 37, 10, 11, 0)
s = 142: (0, 16, 13, 7, 8, 50, 17, 26, 40, 12, 7, 0)
s = 143: (0, 25, 24, 7, 5, 49, 28, 15, 48, 10, 10, 0)
s = 144: (0, 20, 26, 7, 5, 47, 26, 18, 26, 8, 14, 0)
s = 145: (0, 16, 19, 6, 5, 46, 30, 20, 48, 8, 8, 0)
s = 146: (0, 19, 25, 7, 5, 22, 24, 18, 38, 14, 15, 0)
s = 147: (0, 26, 13, 5, 6, 31, 14, 24, 23, 6, 14, 0)
s = 148: (0, 14, 21, 6, 5, 23, 17, 30, 26, 6, 16, 0)
s = 149: (0, 15, 25, 9, 6, 32, 21, 13, 22, 11, 7, 0)
s = 150: (0, 10, 15, 7, 4, 26, 20, 26, 33, 11, 12, 0)
s = 151: (0, 17, 23, 12, 4, 35, 20, 27, 40, 11, 11, 0)
s = 152: (0, 9, 24, 7, 5, 56, 12, 22, 30, 7, 14, 0)
s = 153: (0, 17, 26, 7, 9, 28, 29, 14, 32, 12, 13, 0)
s = 154: (0, 18, 16, 6, 5, 32, 24, 26, 46, 7, 13, 0)
s = 155: (0, 20, 17, 8, 6, 62, 26, 27, 49, 11, 10, 0)
s = 156: (0, 11, 16, 10, 6, 33, 17, 14, 32, 7, 9, 0)
s = 157: (0, 15, 15, 9, 8, 47, 26, 26, 46, 13, 18, 0)
s = 158: (0, 18, 25, 9, 3, 50, 17, 19, 37, 7, 16, 0)
s = 159: (0, 16, 23, 9, 5, 43, 16, 15, 28, 5, 12, 0)
s = 160: (0, 12, 28, 10, 7, 44, 25, 24, 29, 13, 19, 0)
s = 161: (0, 17, 19, 6, 5, 37, 18, 24, 35, 11, 11, 0)
s = 162: (0, 16, 20, 9, 4, 43, 14, 29, 37, 15, 9, 0)
s = 163: (0, 11, 15, 7, 4, 23, 12, 23, 37, 11, 13, 0)
s = 164: (0, 16, 26, 7, 5, 47, 16, 22, 29, 10, 9, 0)
s = 165: (0, 18, 30, 13, 9, 25, 16, 25, 46, 5, 11, 0)
s = 166: (0, 17, 17, 8, 5, 24, 12, 20, 30, 6, 13, 0)
s = 167: (0, 12, 31, 7, 7, 37, 35, 14, 27, 7, 12, 0)
s = 168: (0, 13, 15, 5, 4, 34, 21, 21, 20, 7, 17, 0)
s = 169: (0, 17, 18, 7, 4, 41, 15, 13, 34, 8, 7, 0)
s = 170: (0, 19, 30, 9, 5, 49, 24, 18, 54, 9, 9, 0)
s = 171: (0, 14, 18, 5, 6, 30, 20, 25, 33, 8, 14, 0)
s = 172: (0, 19, 16, 9, 7, 28, 21, 26, 29, 7, 11, 0)
s = 173: (0, 18, 26, 7, 4, 42, 16, 12, 40, 7, 14, 0)
s = 174: (0, 11, 23, 7, 6, 40, 27, 20, 34, 6, 13, 0)
s = 175: (0, 15, 21, 4, 5, 40, 18, 22, 25, 5, 10, 0)
s = 176: (0, 16, 22, 6, 4, 42, 24, 16, 36, 9, 13, 0)
s = 177: (0, 10, 33, 5, 5, 23, 16, 20, 21, 10, 14, 0)
s = 178: (0, 23, 25, 7, 6, 26, 13, 20, 33, 7, 15, 0)
s = 179: (0, 20, 23, 11, 6, 36, 19, 31, 32, 8, 13, 0)
s = 180: (0, 17, 18, 9, 4, 34, 18, 29, 25, 12, 9, 0)
s = 181: (0, 20, 22, 12, 7, 28, 24, 14, 48, 10, 13, 0)
s = 182: (0, 15, 21, 7, 7, 39, 21, 15, 51, 10, 16, 0)
s = 183: (0, 13, 18, 7, 6, 24, 25, 33, 22, 8, 10, 0)
s = 184: (0, 12, 21, 8, 6, 23, 16, 29, 35, 7, 7, 0)
s = 185: (0, 17, 17, 10, 3, 25, 12, 17, 49, 5, 8, 0)
s = 186: (0, 17, 24, 8, 5, 43, 19, 23, 42, 11, 10, 0)
s = 187: (0, 13, 19, 7, 7, 37, 22, 26, 28, 7, 12, 0)
s = 188: (0, 15, 20, 8, 5, 46, 19, 28, 48, 7, 18, 0)
s = 189: (0, 17, 19, 6, 5, 27, 27, 32, 61, 9, 10, 0)
s = 190: (0, 14, 17, 10, 5, 34, 24, 24, 42, 8, 13, 0)
s = 191: (0, 24, 25, 5, 5, 33, 20, 25, 49, 14, 9, 0)
s = 192: (0, 18, 28, 8, 4, 26, 13, 21, 34, 11, 11, 0)
s = 193: (0, 15, 18, 8, 6, 28, 16, 23, 32, 6, 18, 0)
s = 194: (0, 13, 30, 7, 7, 27, 20, 17, 21, 5, 9, 0)
s = 195: (0, 12, 18, 8, 5, 28, 15, 28, 28, 11, 13, 0)
s = 196: (0, 12, 23, 8, 3, 21, 22, 28, 20, 9, 15, 0)
s = 197: (0, 13, 25, 7, 5, 43, 27, 27, 42, 10, 12, 0)
s = 198: (0, 12, 18, 8, 9, 37, 22, 20, 18, 9, 17, 0)
s = 199: (0, 14, 15, 8, 7, 45, 31, 33, 26, 8, 14, 0)
s = 200: (0, 20, 30, 7, 6, 31, 24, 27, 39, 12, 24, 0)
------------------------------------------------------------------------
RESOURCE k = 2
s = 1: (0, 15, 17, 10, 5, 61, 30, 39, 28, 28, 42, 0)
s = 2: (0, 16, 28, 8, 9, 56, 47, 44, 36, 16, 28, 0)
s = 3: (0, 18, 21, 7, 6, 32, 53, 21, 57, 37, 57, 0)
s = 4: (0, 8, 18, 10, 5, 66, 24, 26, 34, 26, 34, 0)
s = 5: (0, 14, 18, 7, 4, 87, 19, 38, 31, 43, 30, 0)
s = 6: (0, 17, 14, 6, 6, 43, 18, 28, 48, 31, 39, 0)
s = 7: (0, 10, 22, 7, 4, 49, 26, 29, 63, 22, 25, 0)
s = 8: (0, 9, 18, 10, 5, 43, 31, 27, 53, 48, 19, 0)
s = 9: (0, 14, 18, 9, 5, 61, 33, 24, 62, 31, 34, 0)
s = 10: (0, 8, 27, 6, 6, 43, 54, 48, 29, 31, 37, 0)
s = 11: (0, 16, 21, 10, 11, 38, 24, 25, 42, 21, 28, 0)
s = 12: (0, 10, 26, 15, 5, 41, 24, 39, 50, 39, 24, 0)
s = 13: (0, 12, 28, 9, 7, 46, 44, 26, 32, 45, 42, 0)
s = 14: (0, 17, 30, 7, 6, 34, 36, 24, 38, 17, 37, 0)
s = 15: (0, 17, 27, 8, 5, 67, 36, 22, 31, 40, 37, 0)
s = 16: (0, 8, 26, 6, 6, 58, 37, 28, 52, 39, 28, 0)
s = 17: (0, 11, 29, 11, 6, 51, 43, 35, 38, 35, 29, 0)
s = 18: (0, 14, 23, 10, 6, 44, 30, 36, 43, 36, 39, 0)
s = 19: (0, 17, 19, 13, 7, 63, 40, 28, 44, 25, 27, 0)
s = 20: (0, 13, 29, 14, 5, 96, 40, 23, 47, 46, 22, 0)
s = 21: (0, 7, 20, 13, 8, 37, 23, 28, 54, 28, 25, 0)
s = 22: (0, 17, 17, 11, 10, 44, 22, 27, 53, 40, 41, 0)
s = 23: (0, 12, 24, 7, 8, 40, 43, 26, 46, 18, 24, 0)
s = 24: (0, 9, 27, 7, 4, 50, 38, 27, 23, 37, 27, 0)
s = 25: (0, 11, 36, 6, 5, 45, 27, 22, 50, 20, 27, 0)
s = 26: (0, 8, 24, 12, 9, 44, 18, 18, 36, 18, 38, 0)
s = 27: (0, 15, 21, 7, 6, 57, 47, 27, 54, 30, 26, 0)
s = 28: (0, 15, 24, 8, 7, 90, 41, 38, 38, 24, 44, 0)
s = 29: (0, 10, 20, 6, 5, 80, 20, 27, 34, 44, 26, 0)
s = 30: (0, 8, 18, 11, 6, 38, 60, 42, 46, 27, 20, 0)
s = 31: (0, 12, 31, 7, 8, 38, 38, 33, 41, 24, 28, 0)
s = 32: (0, 11, 26, 9, 7, 31, 25, 46, 31, 44, 51, 0)
s = 33: (0, 11, 20, 8, 7, 60, 24, 52, 46, 22, 43, 0)
s = 34: (0, 20, 24, 12, 5, 48, 20, 32, 59, 24, 25, 0)
s = 35: (0, 14, 31, 6, 9, 72, 36, 20, 36, 21, 58, 0)
s = 36: (0, 18, 19, 11, 5, 66, 22, 40, 40, 27, 36, 0)
s = 37: (0, 8, 27, 9, 6, 79, 26, 51, 27, 41, 37, 0)
s = 38: (0, 9, 21, 12, 8, 50, 54, 20, 51, 21, 40, 0)
s = 39: (0, 11, 45, 10, 5, 44, 35, 37, 38, 23, 37, 0)
s = 40: (0, 12, 18, 6, 9, 66, 29, 22, 24, 18, 38, 0)
s = 41: (0, 12, 18, 7, 4, 32, 36, 35, 31, 41, 33, 0)
s = 42: (0, 8, 16, 5, 6, 60, 38, 42, 36, 43, 25, 0)
s = 43: (0, 11, 41, 9, 7, 85, 47, 18, 61, 22, 18, 0)
s = 44: (0, 12, 19, 8, 5, 66, 34, 28, 21, 45, 20, 0)
s = 45: (0, 9, 18, 7, 5, 82, 31, 48, 36, 23, 23, 0)
s = 46: (0, 12, 15, 8, 4, 52, 55, 35, 46, 35, 24, 0)
s = 47: (0, 13, 18, 9, 5, 51, 29, 35, 34, 20, 36, 0)
s = 48: (0, 12, 29, 13, 8, 63, 36, 39, 68, 18, 35, 0)
s = 49: (0, 13, 33, 8, 10, 56, 28, 19, 26, 27, 26, 0)
s = 50: (0, 16, 28, 6, 4, 58, 31, 27, 32, 22, 26, 0)
s = 51: (0, 8, 19, 9, 7, 49, 22, 26, 26, 36, 61, 0)
s = 52: (0, 15, 25, 8, 5, 67, 47, 23, 51, 20, 30, 0)
s = 53: (0, 8, 23, 10, 8, 37, 49, 35, 33, 46, 27, 0)
s = 54: (0, 8, 22, 9, 7, 88, 28, 30, 71, 24, 34, 0)
s = 55: (0, 12, 42, 10, 5, 56, 22, 26, 46, 39, 28, 0)
s = 56: (0, 15, 23, 13, 5, 74, 29, 37, 27, 22, 30, 0)
s = 57: (0, 10, 28, 6, 8, 77, 37, 47, 32, 38, 26, 0)
s = 58: (0, 12, 22, 12, 8, 76, 51, 20, 33, 33, 36, 0)
s = 59: (0, 9, 18, 7, 7, 61, 48, 49, 29, 38, 36, 0)
s = 60: (0, 11, 36, 5, 7, 59, 26, 31, 43, 22, 42, 0)
s = 61: (0, 10, 19, 7, 6, 56, 29, 24, 58, 17, 37, 0)
s = 62: (0, 16, 31, 6, 9, 45, 26, 32, 58, 29, 50, 0)
s = 63: (0, 11, 35, 7, 8, 48, 38, 40, 52, 24, 31, 0)
s = 64: (0, 14, 19, 10, 8, 70, 36, 36, 60, 39, 35, 0)
s = 65: (0, 9, 21, 8, 4, 42, 19, 31, 37, 29, 30, 0)
s = 66: (0, 10, 32, 8, 10, 53, 22, 32, 41, 34, 31, 0)
s = 67: (0, 18, 19, 11, 9, 29, 47, 29, 36, 31, 34, 0)
s = 68: (0, 20, 16, 5, 5, 37, 27, 24, 24, 30, 27, 0)
s = 69: (0, 13, 23, 8, 6, 60, 41, 25, 45, 24, 19, 0)
s = 70: (0, 10, 20, 9, 5, 51, 23, 33, 51, 34, 31, 0)
s = 71: (0, 9, 22, 11, 6, 37, 23, 33, 45, 18, 28, 0)
s = 72: (0, 11, 32, 12, 8, 38, 32, 19, 46, 42, 28, 0)
s = 73: (0, 14, 24, 7, 6, 67, 18, 21, 34, 28, 27, 0)
s = 74: (0, 13, 26, 6, 7, 61, 46, 42, 36, 27, 28, 0)
s = 75: (0, 14, 19, 8, 10, 41, 20, 33, 53, 24, 31, 0)
s = 76: (0, 14, 17, 9, 7, 61, 42, 44, 55, 37, 22, 0)
s = 77: (0, 12, 28, 9, 5, 47, 27, 26, 26, 24, 32, 0)
s = 78: (0, 15, 21, 9, 5, 30, 38, 22, 36, 22, 21, 0)
s = 79: (0, 11, 26, 11, 5, 53, 32, 40, 44, 21, 37, 0)
s = 80: (0, 11, 37, 6, 6, 48, 53, 43, 27, 42, 43, 0)
s = 81: (0, 12, 32, 6, 8, 40, 36, 20, 30, 25, 22, 0)
s = 82: (0, 10, 24, 7, 9, 68, 43, 27, 52, 28, 30, 0)
s = 83: (0, 13, 27, 10, 6, 53, 42, 19, 50, 35, 19, 0)
s = 84: (0, 8, 22, 7, 8, 70, 38, 30, 35, 25, 32, 0)
s = 85: (0, 11, 17, 9, 7, 55, 21, 38, 41, 45, 32, 0)
s = 86: (0, 11, 38, 6, 6, 68, 40, 39, 39, 26, 31, 0)
s = 87: (0, 13, 28, 13, 7, 47, 29, 22, 52, 24, 23, 0)
s = 88: (0, 13, 18, 13, 7, 46, 28, 29, 26, 40, 27, 0)
s = 89: (0, 9, 20, 7, 5, 73, 30, 43, 34, 49, 27, 0)
s = 90: (0, 7, 27, 12, 8, 69, 18, 42, 26, 34, 41, 0)
s = 91: (0, 11, 22, 7, 11, 64, 30, 37, 47, 17, 27, 0)
s = 92: (0, 9, 34, 6, 5, 59, 23, 23, 39, 29, 25, 0)
s = 93: (0, 10, 25, 7, 9, 54, 26, 31, 67, 26, 42, 0)
s = 94: (0, 9, 15, 9, 7, 53, 35, 37, 60, 33, 37, 0)
s = 95: (0, 16, 17, 10, 7, 59, 34, 23, 29, 30, 22, 0)
s = 96: (0, 10, 26, 5, 9, 88, 19, 38, 36, 26, 34, 0)
s = 97: (0, 8, 36, 10, 9, 45, 30, 26, 60, 31, 45, 0)
s = 98: (0, 10, 33, 6, 4, 77, 26, 27, 66, 32, 19, 0)
s = 99: (0, 11, 30, 15, 7, 54, 41, 16, 37, 19, 38, 0)
s = 100: (0, 11, 27, 10, 8, 47, 42, 37, 23, 22, 26, 0)
s = 101: (0, 14, 16, 8, 5, 43, 40, 25, 36, 21, 40, 0)
s = 102: (0, 9, 15, 7, 6, 46, 27, 35, 34, 37, 35, 0)
s = 103: (0, 12, 44, 8, 5, 86, 22, 32, 51, 26, 42, 0)
s = 104: (0, 10, 17, 7, 8, 39, 41, 35, 46, 29, 26, 0)
s = 105: (0, 7, 17, 12, 6, 72, 20, 41, 29, 19, 39, 0)
s = 106: (0, 18, 29, 6, 4, 32, 24, 30, 40, 23, 24, 0)
s = 107: (0, 20, 25, 5, 6, 56, 44, 27, 59, 28, 40, 0)
s = 108: (0, 15, 23, 8, 8, 48, 28, 23, 61, 33, 34, 0)
s = 109: (0, 10, 33, 12, 8, 35, 32, 20, 28, 22, 27, 0)
s = 110: (0, 13, 23, 6, 6, 49, 34, 42, 45, 51, 28, 0)
s = 111: (0, 9, 21, 6, 5, 66, 36, 25, 58, 27, 26, 0)
s = 112: (0, 11, 18, 8, 6, 44, 37, 41, 37, 18, 40, 0)
s = 113: (0, 11, 26, 11, 9, 38, 45, 32, 35, 41, 35, 0)
s = 114: (0, 9, 27, 5, 6, 68, 29, 22, 49, 47, 50, 0)
s = 115: (0, 11, 19, 6, 6, 93, 20, 26, 38, 34, 22, 0)
s = 116: (0, 8, 19, 7, 6, 66, 35, 27, 31, 24, 25, 0)
s = 117: (0, 13, 32, 7, 6, 59, 25, 32, 47, 29, 22, 0)
s = 118: (0, 8, 23, 10, 7, 57, 27, 44, 67, 27, 36, 0)
s = 119: (0, 11, 21, 9, 5, 40, 20, 24, 29, 23, 26, 0)
s = 120: (0, 14, 15, 6, 5, 79, 44, 36, 38, 29, 27, 0)
s = 121: (0, 12, 29, 7, 7, 60, 23, 29, 42, 23, 26, 0)
s = 122: (0, 15, 20, 5, 6, 77, 19, 24, 61, 20, 31, 0)
s = 123: (0, 19, 27, 8, 8, 50, 57, 44, 30, 20, 34, 0)
s = 124: (0, 8, 24, 6, 8, 61, 20, 26, 47, 32, 38, 0)
s = 125: (0, 12, 18, 7, 5, 50, 54, 47, 42, 30, 30, 0)
s = 126: (0, 10, 34, 6, 7, 38, 40, 23, 43, 20, 23, 0)
s = 127: (0, 12, 23, 9, 6, 67, 22, 23, 33, 30, 28, 0)
s = 128: (0, 11, 37, 7, 6, 44, 24, 41, 42, 20, 28, 0)
s = 129: (0, 10, 21, 7, 7, 45, 24, 45, 40, 21, 26, 0)
s = 130: (0, 8, 14, 9, 7, 71, 24, 21, 58, 23, 26, 0)
s = 131: (0, 16, 29, 11, 9, 84, 37, 22, 42, 45, 35, 0)
s = 132: (0, 13, 18, 5, 6, 76, 25, 43, 52, 27, 30, 0)
s = 133: (0, 20, 23, 9, 6, 40, 24, 21, 47, 31, 29, 0)
s = 134: (0, 8, 24, 15, 6, 70, 40, 38, 51, 31, 36, 0)
s = 135: (0, 8, 43, 13, 9, 55, 27, 34, 54, 21, 30, 0)
s = 136: (0, 14, 32, 10, 7, 56, 39, 26, 64, 25, 34, 0)
s = 137: (0, 14, 32, 8, 5, 46, 31, 46, 44, 19, 51, 0)
s = 138: (0, 16, 16, 12, 5, 74, 19, 37, 25, 20, 22, 0)
s = 139: (0, 16, 19, 6, 9, 62, 43, 26, 59, 23, 19, 0)
s = 140: (0, 10, 29, 10, 7, 82, 51, 24, 41, 26, 38, 0)
s = 141: (0, 12, 19, 5, 7, 63, 29, 31, 46, 33, 28, 0)
s = 142: (0, 12, 14, 8, 10, 80, 26, 37, 50, 41, 19, 0)
s = 143: (0, 19, 27, 8, 6, 77, 44, 22, 60, 33, 25, 0)
s = 144: (0, 15, 29, 8, 5, 75, 42, 26, 32, 26, 35, 0)
s = 145: (0, 12, 22, 7, 6, 74, 48, 29, 59, 28, 20, 0)
s = 146: (0, 14, 28, 8, 6, 34, 38, 26, 47, 49, 40, 0)
s = 147: (0, 19, 15, 5, 7, 49, 22, 34, 28, 21, 36, 0)
s = 148: (0, 11, 24, 7, 6, 36, 27, 43, 33, 19, 43, 0)
s = 149: (0, 11, 29, 10, 7, 51, 34, 18, 27, 38, 19, 0)
s = 150: (0, 8, 17, 8, 5, 41, 32, 37, 41, 37, 30, 0)
s = 151: (0, 13, 26, 14, 5, 55, 31, 39, 50, 37, 29, 0)
s = 152: (0, 7, 27, 8, 6, 90, 19, 31, 38, 23, 37, 0)
s = 153: (0, 13, 29, 7, 11, 44, 47, 20, 40, 39, 33, 0)
s = 154: (0, 13, 19, 7, 6, 52, 38, 37, 57, 22, 34, 0)
s = 155: (0, 15, 19, 10, 7, 98, 41, 38, 61, 38, 26, 0)
s = 156: (0, 8, 19, 12, 7, 52, 27, 19, 40, 23, 22, 0)
s = 157: (0, 12, 17, 11, 10, 75, 41, 37, 57, 44, 46, 0)
s = 158: (0, 13, 29, 10, 4, 79, 26, 27, 46, 23, 43, 0)
s = 159: (0, 12, 26, 10, 6, 69, 25, 22, 35, 18, 31, 0)
s = 160: (0, 9, 32, 11, 9, 70, 40, 34, 36, 44, 51, 0)
s = 161: (0, 13, 22, 7, 6, 60, 29, 34, 43, 38, 28, 0)
s = 162: (0, 12, 23, 10, 4, 68, 22, 41, 46, 51, 24, 0)
s = 163: (0, 8, 17, 8, 5, 36, 18, 33, 46, 38, 35, 0)
s = 164: (0, 12, 30, 7, 6, 75, 25, 31, 36, 35, 24, 0)
s = 165: (0, 13, 35, 15, 11, 39, 25, 36, 58, 16, 28, 0)
s = 166: (0, 13, 19, 9, 5, 39, 19, 28, 38, 20, 33, 0)
s = 167: (0, 9, 35, 8, 9, 59, 55, 20, 33, 25, 31, 0)
s = 168: (0, 10, 17, 6, 5, 54, 34, 30, 25, 24, 46, 0)
s = 169: (0, 13, 20, 8, 5, 66, 24, 19, 42, 26, 18, 0)
s = 170: (0, 14, 35, 10, 6, 77, 38, 25, 67, 29, 24, 0)
s = 171: (0, 11, 20, 6, 7, 48, 32, 35, 42, 28, 35, 0)
s = 172: (0, 14, 19, 11, 8, 44, 33, 37, 36, 24, 30, 0)
s = 173: (0, 13, 30, 8, 5, 67, 25, 18, 49, 24, 37, 0)
s = 174: (0, 8, 26, 8, 7, 64, 42, 28, 43, 19, 34, 0)
s = 175: (0, 11, 24, 5, 6, 64, 28, 31, 31, 18, 25, 0)
s = 176: (0, 12, 25, 7, 4, 66, 39, 23, 45, 29, 33, 0)
s = 177: (0, 7, 38, 5, 6, 36, 25, 28, 26, 35, 37, 0)
s = 178: (0, 17, 28, 8, 7, 41, 20, 29, 41, 23, 40, 0)
s = 179: (0, 15, 26, 12, 7, 57, 31, 44, 40, 25, 33, 0)
s = 180: (0, 13, 20, 10, 5, 54, 28, 41, 31, 39, 22, 0)
s = 181: (0, 15, 25, 14, 8, 45, 38, 20, 60, 35, 34, 0)
s = 182: (0, 11, 24, 8, 8, 62, 33, 21, 63, 34, 42, 0)
s = 183: (0, 10, 21, 8, 7, 38, 39, 46, 28, 26, 25, 0)
s = 184: (0, 9, 23, 10, 7, 36, 25, 41, 44, 22, 19, 0)
s = 185: (0, 13, 20, 12, 4, 40, 19, 23, 61, 18, 21, 0)
s = 186: (0, 13, 27, 9, 5, 69, 30, 32, 52, 36, 26, 0)
s = 187: (0, 10, 21, 8, 8, 60, 35, 37, 34, 23, 30, 0)
s = 188: (0, 12, 23, 9, 5, 74, 30, 40, 60, 22, 46, 0)
s = 189: (0, 13, 21, 6, 5, 43, 44, 46, 76, 32, 25, 0)
s = 190: (0, 11, 19, 11, 6, 54, 38, 34, 52, 28, 34, 0)
s = 191: (0, 18, 28, 6, 6, 52, 31, 35, 61, 46, 24, 0)
s = 192: (0, 14, 32, 9, 5, 41, 21, 29, 43, 36, 29, 0)
s = 193: (0, 12, 21, 10, 7, 45, 26, 33, 40, 20, 48, 0)
s = 194: (0, 10, 34, 8, 8, 43, 31, 24, 26, 17, 23, 0)
s = 195: (0, 9, 21, 10, 6, 44, 24, 39, 35, 38, 34, 0)
s = 196: (0, 9, 26, 9, 4, 34, 35, 40, 25, 29, 38, 0)
s = 197: (0, 10, 29, 8, 6, 68, 42, 39, 52, 33, 32, 0)
s = 198: (0, 9, 20, 9, 11, 58, 35, 28, 22, 31, 44, 0)
s = 199: (0, 10, 17, 9, 9, 71, 49, 47, 33, 28, 36, 0)
s = 200: (0, 15, 34, 8, 7, 49, 37, 39, 49, 40, 63, 0)
------------------------------------------------------------------------
RESOURCE k = 3
s = 1: (0, 18, 17, 10, 8, 53, 19, 16, 20, 35, 32, 0)
s = 2: (0, 18, 28, 8, 14, 49, 29, 18, 25, 21, 21, 0)
s = 3: (0, 21, 21, 7, 8, 28, 33, 9, 40, 48, 43, 0)
s = 4: (0, 10, 18, 10, 7, 58, 15, 11, 24, 33, 25, 0)
s = 5: (0, 17, 18, 7, 6, 76, 12, 15, 22, 55, 23, 0)
s = 6: (0, 19, 14, 6, 9, 38, 12, 12, 33, 39, 29, 0)
s = 7: (0, 12, 22, 7, 6, 43, 16, 12, 44, 28, 19, 0)
s = 8: (0, 10, 18, 10, 7, 38, 19, 11, 37, 61, 15, 0)
s = 9: (0, 16, 18, 9, 7, 54, 21, 10, 44, 39, 25, 0)
s = 10: (0, 9, 27, 6, 9, 38, 34, 20, 20, 39, 28, 0)
s = 11: (0, 19, 21, 10, 16, 34, 15, 10, 29, 27, 21, 0)
s = 12: (0, 11, 26, 15, 8, 36, 15, 16, 35, 50, 18, 0)
s = 13: (0, 13, 28, 9, 10, 40, 28, 11, 22, 57, 32, 0)
s = 14: (0, 20, 30, 7, 8, 30, 23, 10, 27, 22, 28, 0)
s = 15: (0, 20, 27, 8, 8, 59, 22, 9, 22, 51, 28, 0)
s = 16: (0, 10, 26, 6, 9, 51, 23, 11, 37, 50, 21, 0)
s = 17: (0, 12, 29, 11, 9, 45, 27, 14, 27, 45, 22, 0)
s = 18: (0, 16, 23, 10, 9, 38, 19, 15, 30, 47, 29, 0)
s = 19: (0, 19, 19, 13, 10, 56, 25, 11, 31, 33, 21, 0)
s = 20: (0, 15, 29, 14, 8, 84, 25, 9, 33, 59, 17, 0)
s = 21: (0, 8, 20, 13, 11, 32, 14, 11, 38, 36, 19, 0)
s = 22: (0, 20, 17, 11, 15, 39, 14, 11, 37, 52, 31, 0)
s = 23: (0, 14, 24, 7, 12, 35, 27, 11, 32, 23, 18, 0)
s = 24: (0, 11, 27, 7, 5, 44, 24, 11, 16, 47, 20, 0)
s = 25: (0, 13, 36, 6, 7, 39, 17, 9, 35, 26, 20, 0)
s = 26: (0, 10, 24, 12, 14, 39, 11, 7, 25, 23, 29, 0)
s = 27: (0, 18, 21, 7, 8, 50, 30, 11, 38, 38, 20, 0)
s = 28: (0, 18, 24, 8, 10, 79, 26, 15, 27, 31, 33, 0)
s = 29: (0, 12, 20, 6, 7, 70, 13, 11, 24, 57, 20, 0)
s = 30: (0, 9, 18, 11, 8, 33, 38, 17, 33, 34, 15, 0)
s = 31: (0, 14, 31, 7, 11, 33, 24, 14, 29, 31, 21, 0)
s = 32: (0, 12, 26, 9, 11, 27, 16, 19, 22, 56, 38, 0)
s = 33: (0, 13, 20, 8, 10, 53, 15, 21, 32, 29, 32, 0)
s = 34: (0, 23, 24, 12, 8, 42, 13, 13, 41, 31, 19, 0)
s = 35: (0, 16, 31, 6, 14, 63, 23, 8, 25, 27, 44, 0)
s = 36: (0, 21, 19, 11, 7, 58, 14, 16, 28, 35, 27, 0)
s = 37: (0, 9, 27, 9, 9, 69, 16, 21, 19, 53, 28, 0)
s = 38: (0, 10, 21, 12, 12, 44, 34, 8, 36, 26, 30, 0)
s = 39: (0, 13, 45, 10, 7, 38, 22, 15, 27, 29, 28, 0)
s = 40: (0, 14, 18, 6, 13, 58, 18, 9, 17, 23, 28, 0)
s = 41: (0, 13, 18, 7, 6, 28, 23, 14, 22, 53, 25, 0)
s = 42: (0, 9, 16, 5, 9, 52, 24, 17, 26, 56, 19, 0)
s = 43: (0, 12, 41, 9, 10, 74, 29, 7, 43, 29, 14, 0)
s = 44: (0, 14, 19, 8, 8, 58, 21, 11, 15, 57, 15, 0)
s = 45: (0, 10, 18, 7, 8, 72, 20, 19, 25, 29, 17, 0)
s = 46: (0, 14, 15, 8, 6, 46, 34, 14, 33, 44, 18, 0)
s = 47: (0, 15, 18, 9, 8, 45, 18, 14, 24, 26, 27, 0)
s = 48: (0, 14, 29, 13, 12, 55, 23, 16, 48, 23, 27, 0)
s = 49: (0, 15, 33, 8, 15, 49, 18, 8, 18, 35, 20, 0)
s = 50: (0, 19, 28, 6, 6, 51, 19, 11, 23, 28, 20, 0)
s = 51: (0, 10, 19, 9, 10, 43, 14, 11, 18, 46, 46, 0)
s = 52: (0, 17, 25, 8, 7, 59, 30, 9, 36, 26, 23, 0)
s = 53: (0, 10, 23, 10, 12, 32, 31, 14, 23, 59, 21, 0)
s = 54: (0, 10, 22, 9, 10, 77, 18, 12, 50, 31, 26, 0)
s = 55: (0, 13, 42, 10, 7, 49, 14, 11, 33, 50, 21, 0)
s = 56: (0, 17, 23, 13, 7, 64, 18, 15, 19, 28, 23, 0)
s = 57: (0, 11, 28, 6, 11, 67, 23, 19, 22, 49, 19, 0)
s = 58: (0, 13, 22, 12, 12, 66, 32, 8, 23, 42, 27, 0)
s = 59: (0, 10, 18, 7, 11, 54, 30, 20, 20, 49, 27, 0)
s = 60: (0, 12, 36, 5, 10, 52, 17, 13, 30, 28, 32, 0)
s = 61: (0, 11, 19, 7, 9, 49, 18, 10, 41, 22, 28, 0)
s = 62: (0, 19, 31, 6, 13, 39, 16, 13, 41, 37, 38, 0)
s = 63: (0, 13, 35, 7, 11, 42, 24, 16, 37, 31, 23, 0)
s = 64: (0, 16, 19, 10, 12, 62, 23, 15, 42, 49, 26, 0)
s = 65: (0, 11, 21, 8, 6, 37, 12, 13, 26, 37, 22, 0)
s = 66: (0, 11, 32, 8, 14, 46, 14, 13, 29, 43, 24, 0)
s = 67: (0, 20, 19, 11, 13, 26, 30, 12, 25, 40, 26, 0)
s = 68: (0, 23, 16, 5, 7, 33, 17, 10, 17, 38, 20, 0)
s = 69: (0, 15, 23, 8, 9, 52, 26, 10, 32, 31, 15, 0)
s = 70: (0, 11, 20, 9, 7, 45, 14, 13, 36, 44, 23, 0)
s = 71: (0, 10, 22, 11, 9, 33, 15, 14, 32, 23, 21, 0)
s = 72: (0, 12, 32, 12, 12, 33, 20, 8, 32, 54, 21, 0)
s = 73: (0, 17, 24, 7, 8, 58, 12, 9, 24, 36, 20, 0)
s = 74: (0, 15, 26, 6, 10, 54, 29, 17, 25, 35, 21, 0)
s = 75: (0, 16, 19, 8, 14, 36, 12, 14, 37, 31, 23, 0)
s = 76: (0, 16, 17, 9, 10, 54, 26, 18, 39, 47, 17, 0)
s = 77: (0, 14, 28, 9, 7, 41, 17, 11, 18, 31, 24, 0)
s = 78: (0, 18, 21, 9, 8, 26, 24, 9, 25, 28, 16, 0)
s = 79: (0, 12, 26, 11, 7, 46, 20, 16, 31, 27, 28, 0)
s = 80: (0, 12, 37, 6, 9, 42, 33, 17, 19, 53, 33, 0)
s = 81: (0, 14, 32, 6, 11, 35, 23, 8, 21, 33, 16, 0)
s = 82: (0, 11, 24, 7, 13, 60, 27, 11, 36, 36, 23, 0)
s = 83: (0, 15, 27, 10, 9, 46, 26, 8, 35, 45, 14, 0)
s = 84: (0, 10, 22, 7, 12, 62, 24, 12, 25, 32, 24, 0)
s = 85: (0, 13, 17, 9, 10, 49, 13, 16, 29, 58, 24, 0)
s = 86: (0, 13, 38, 6, 9, 59, 25, 16, 28, 34, 24, 0)
s = 87: (0, 15, 28, 13, 11, 41, 18, 9, 36, 30, 17, 0)
s = 88: (0, 15, 18, 13, 10, 40, 18, 12, 18, 51, 21, 0)
s = 89: (0, 11, 20, 7, 7, 64, 19, 18, 24, 62, 20, 0)
s = 90: (0, 9, 27, 12, 11, 61, 12, 17, 19, 43, 31, 0)
s = 91: (0, 12, 22, 7, 16, 56, 19, 15, 33, 22, 21, 0)
s = 92: (0, 10, 34, 6, 7, 51, 15, 9, 27, 38, 19, 0)
s = 93: (0, 12, 25, 7, 13, 47, 17, 13, 47, 34, 32, 0)
s = 94: (0, 10, 15, 9, 10, 47, 22, 15, 42, 42, 28, 0)
s = 95: (0, 19, 17, 10, 11, 51, 22, 9, 20, 38, 17, 0)
s = 96: (0, 12, 26, 5, 14, 77, 12, 16, 25, 33, 26, 0)
s = 97: (0, 9, 36, 10, 13, 40, 19, 11, 42, 39, 34, 0)
s = 98: (0, 12, 33, 6, 6, 68, 16, 11, 46, 40, 14, 0)
s = 99: (0, 13, 30, 15, 10, 47, 26, 7, 26, 25, 29, 0)
s = 100: (0, 13, 27, 10, 12, 41, 26, 15, 16, 28, 20, 0)
s = 101: (0, 16, 16, 8, 8, 38, 25, 10, 25, 26, 30, 0)
s = 102: (0, 11, 15, 7, 9, 40, 17, 14, 24, 48, 26, 0)
s = 103: (0, 14, 44, 8, 8, 75, 14, 13, 36, 33, 32, 0)
s = 104: (0, 11, 17, 7, 12, 34, 26, 14, 32, 37, 19, 0)
s = 105: (0, 8, 17, 12, 9, 63, 13, 17, 20, 24, 30, 0)
s = 106: (0, 21, 29, 6, 6, 28, 15, 12, 28, 30, 18, 0)
s = 107: (0, 23, 25, 5, 9, 49, 28, 11, 42, 35, 30, 0)
s = 108: (0, 17, 23, 8, 11, 42, 18, 9, 43, 42, 26, 0)
s = 109: (0, 11, 33, 12, 12, 30, 20, 8, 20, 28, 21, 0)
s = 110: (0, 15, 23, 6, 9, 43, 22, 17, 32, 65, 21, 0)
s = 111: (0, 10, 21, 6, 8, 58, 23, 10, 41, 35, 20, 0)
s = 112: (0, 13, 18, 8, 9, 39, 23, 17, 26, 23, 30, 0)
s = 113: (0, 13, 26, 11, 13, 34, 29, 13, 25, 53, 27, 0)
s = 114: (0, 11, 27, 5, 8, 59, 18, 9, 35, 60, 37, 0)
s = 115: (0, 13, 19, 6, 8, 82, 12, 11, 27, 43, 16, 0)
s = 116: (0, 9, 19, 7, 9, 58, 22, 11, 22, 31, 19, 0)
s = 117: (0, 15, 32, 7, 8, 51, 16, 13, 33, 37, 16, 0)
s = 118: (0, 10, 23, 10, 11, 50, 17, 18, 47, 34, 27, 0)
s = 119: (0, 13, 21, 9, 8, 35, 13, 10, 20, 30, 20, 0)
s = 120: (0, 16, 15, 6, 7, 69, 28, 15, 26, 37, 21, 0)
s = 121: (0, 14, 29, 7, 11, 53, 15, 12, 30, 29, 20, 0)
s = 122: (0, 18, 20, 5, 9, 67, 12, 10, 43, 26, 23, 0)
s = 123: (0, 22, 27, 8, 11, 44, 36, 18, 21, 25, 26, 0)
s = 124: (0, 9, 24, 6, 11, 53, 13, 11, 33, 40, 29, 0)
s = 125: (0, 14, 18, 7, 8, 43, 34, 19, 30, 39, 23, 0)
s = 126: (0, 12, 34, 6, 10, 34, 25, 9, 31, 26, 17, 0)
s = 127: (0, 14, 23, 9, 9, 58, 14, 9, 23, 39, 21, 0)
s = 128: (0, 13, 37, 7, 9, 38, 15, 17, 29, 26, 21, 0)
s = 129: (0, 12, 21, 7, 10, 39, 15, 18, 28, 27, 20, 0)
s = 130: (0, 9, 14, 9, 10, 62, 15, 9, 40, 29, 20, 0)
s = 131: (0, 19, 29, 11, 13, 73, 23, 9, 29, 57, 27, 0)
s = 132: (0, 15, 18, 5, 8, 66, 16, 17, 37, 34, 23, 0)
s = 133: (0, 23, 23, 9, 8, 35, 15, 9, 33, 40, 22, 0)
s = 134: (0, 9, 24, 15, 8, 61, 25, 15, 36, 40, 27, 0)
s = 135: (0, 9, 43, 13, 14, 48, 17, 14, 38, 27, 22, 0)
s = 136: (0, 17, 32, 10, 10, 49, 25, 11, 45, 32, 26, 0)
s = 137: (0, 17, 32, 8, 7, 40, 19, 19, 31, 24, 38, 0)
s = 138: (0, 19, 16, 12, 8, 64, 12, 15, 18, 25, 17, 0)
s = 139: (0, 19, 19, 6, 13, 55, 27, 11, 41, 29, 15, 0)
s = 140: (0, 11, 29, 10, 11, 72, 32, 10, 29, 33, 29, 0)
s = 141: (0, 14, 19, 5, 10, 56, 18, 13, 32, 43, 21, 0)
s = 142: (0, 14, 14, 8, 15, 70, 17, 15, 35, 52, 14, 0)
s = 143: (0, 22, 27, 8, 8, 68, 28, 9, 42, 42, 19, 0)
s = 144: (0, 17, 29, 8, 8, 66, 26, 11, 23, 34, 27, 0)
s = 145: (0, 14, 22, 7, 9, 64, 30, 12, 42, 35, 15, 0)
s = 146: (0, 17, 28, 8, 9, 30, 24, 11, 33, 62, 30, 0)
s = 147: (0, 23, 15, 5, 10, 43, 14, 14, 20, 27, 27, 0)
s = 148: (0, 12, 24, 7, 9, 31, 17, 17, 23, 24, 32, 0)
s = 149: (0, 13, 29, 10, 11, 44, 21, 7, 19, 48, 14, 0)
s = 150: (0, 9, 17, 8, 7, 36, 20, 15, 29, 47, 23, 0)
s = 151: (0, 15, 26, 14, 7, 48, 20, 16, 35, 47, 22, 0)
s = 152: (0, 8, 27, 8, 9, 79, 12, 13, 27, 30, 28, 0)
s = 153: (0, 15, 29, 7, 16, 39, 29, 8, 28, 50, 25, 0)
s = 154: (0, 16, 19, 7, 9, 45, 24, 15, 40, 29, 26, 0)
s = 155: (0, 18, 19, 10, 10, 86, 26, 15, 43, 48, 20, 0)
s = 156: (0, 10, 19, 12, 10, 46, 17, 8, 28, 29, 17, 0)
s = 157: (0, 14, 17, 11, 14, 66, 26, 15, 40, 56, 35, 0)
s = 158: (0, 15, 29, 10, 6, 69, 17, 11, 32, 29, 32, 0)
s = 159: (0, 14, 26, 10, 8, 60, 16, 9, 25, 23, 23, 0)
s = 160: (0, 10, 32, 11, 13, 61, 25, 14, 25, 57, 38, 0)
s = 161: (0, 15, 22, 7, 8, 52, 18, 14, 30, 49, 21, 0)
s = 162: (0, 14, 23, 10, 6, 59, 14, 17, 32, 65, 18, 0)
s = 163: (0, 9, 17, 8, 7, 32, 12, 13, 32, 48, 26, 0)
s = 164: (0, 14, 30, 7, 9, 66, 16, 13, 25, 44, 18, 0)
s = 165: (0, 15, 35, 15, 16, 34, 16, 15, 40, 20, 21, 0)
s = 166: (0, 15, 19, 9, 8, 34, 12, 11, 27, 25, 25, 0)
s = 167: (0, 11, 35, 8, 13, 52, 35, 8, 23, 31, 24, 0)
s = 168: (0, 11, 17, 6, 7, 48, 21, 12, 17, 31, 34, 0)
s = 169: (0, 15, 20, 8, 8, 57, 15, 8, 30, 34, 14, 0)
s = 170: (0, 17, 35, 10, 9, 68, 24, 10, 47, 37, 18, 0)
s = 171: (0, 13, 20, 6, 10, 42, 20, 14, 29, 36, 27, 0)
s = 172: (0, 17, 19, 11, 11, 39, 21, 15, 25, 30, 22, 0)
s = 173: (0, 15, 30, 8, 8, 59, 16, 7, 35, 31, 28, 0)
s = 174: (0, 10, 26, 8, 10, 56, 27, 11, 30, 24, 26, 0)
s = 175: (0, 13, 24, 5, 9, 56, 18, 13, 22, 23, 19, 0)
s = 176: (0, 14, 25, 7, 6, 58, 24, 9, 32, 37, 25, 0)
s = 177: (0, 9, 38, 5, 8, 31, 16, 11, 19, 45, 28, 0)
s = 178: (0, 20, 28, 8, 10, 36, 13, 12, 29, 30, 30, 0)
s = 179: (0, 18, 26, 12, 11, 50, 19, 18, 28, 32, 25, 0)
s = 180: (0, 15, 20, 10, 7, 48, 18, 17, 22, 50, 17, 0)
s = 181: (0, 17, 25, 14, 12, 39, 24, 8, 42, 45, 25, 0)
s = 182: (0, 13, 24, 8, 11, 54, 21, 9, 44, 44, 32, 0)
s = 183: (0, 11, 21, 8, 10, 33, 25, 19, 20, 33, 19, 0)
s = 184: (0, 11, 23, 10, 10, 32, 16, 17, 31, 29, 14, 0)
s = 185: (0, 15, 20, 12, 6, 35, 12, 10, 43, 23, 16, 0)
s = 186: (0, 15, 27, 9, 8, 60, 19, 13, 37, 46, 20, 0)
s = 187: (0, 12, 21, 8, 12, 52, 22, 15, 24, 29, 23, 0)
s = 188: (0, 14, 23, 9, 8, 65, 19, 16, 42, 28, 35, 0)
s = 189: (0, 15, 21, 6, 8, 37, 27, 19, 54, 41, 19, 0)
s = 190: (0, 13, 19, 11, 9, 48, 24, 14, 37, 36, 26, 0)
s = 191: (0, 21, 28, 6, 9, 46, 20, 14, 43, 59, 18, 0)
s = 192: (0, 16, 32, 9, 7, 36, 13, 12, 30, 46, 22, 0)
s = 193: (0, 14, 21, 10, 10, 40, 16, 13, 28, 25, 36, 0)
s = 194: (0, 11, 34, 8, 12, 38, 20, 10, 18, 22, 18, 0)
s = 195: (0, 11, 21, 10, 9, 39, 15, 16, 25, 48, 26, 0)
s = 196: (0, 10, 26, 9, 5, 30, 22, 16, 18, 38, 29, 0)
s = 197: (0, 11, 29, 8, 9, 59, 27, 16, 37, 42, 24, 0)
s = 198: (0, 10, 20, 9, 16, 51, 22, 11, 16, 40, 33, 0)
s = 199: (0, 12, 17, 9, 13, 63, 31, 19, 23, 36, 27, 0)
s = 200: (0, 17, 34, 8, 11, 43, 24, 16, 35, 51, 48, 0)
************************************************************************
ES/LS-VALUES:
jobnr.   ES(i)    LS(i)
------------------------------------------------------------------------
  0        0        0
  1        0       47
  2        0       45
  3        0       76
  4        5       62
  5        5       51
  6       17       64
  7       24       72
  8       29       78
  9        6       78
 10       24       78
 11       36       86
************************************************************************
BIG-M-VALUES:
M1 = 68, M2 = 246
************************************************************************
